(set-logic QF_UF)
(declare-fun A0 () Bool)
(declare-fun A1 () Bool)
(declare-fun A2 () Bool)
(declare-fun A3 () Bool)
(declare-fun A4 () Bool)
(declare-fun A5 () Bool)
(declare-fun A6 () Bool)
(declare-fun A7 () Bool)
(declare-fun A8 () Bool)
(declare-fun A9 () Bool)
(declare-fun A10 () Bool)
(declare-fun A11 () Bool)
(declare-fun A12 () Bool)
(declare-fun A13 () Bool)
(declare-fun A14 () Bool)
(declare-fun A15 () Bool)
(declare-fun A16 () Bool)
(declare-fun A17 () Bool)
(declare-fun A18 () Bool)
(declare-fun A19 () Bool)
(declare-fun A20 () Bool)
(declare-fun A21 () Bool)
(declare-fun A22 () Bool)
(declare-fun A23 () Bool)
(declare-fun A24 () Bool)
(assert (let ((.def_0 (or A24 A22))) (let ((.def_1 (not A15))) (let ((.def_2 (and .def_1 A15))) (let ((.def_3 (not .def_2))) (let ((.def_4 (and .def_3 .def_0))) (let ((.def_5 (not .def_4))) (let ((.def_6 (not A23))) (let ((.def_7 (not A2))) (let ((.def_8 (and .def_7 .def_6))) (let ((.def_9 (not .def_8))) (let ((.def_10 (not A4))) (let ((.def_11 (or .def_10 A19))) (let ((.def_12 (not .def_11))) (let ((.def_13 (and .def_12 .def_9))) (let ((.def_14 (not .def_13))) (let ((.def_15 (or .def_14 .def_5))) (let ((.def_16 (and A20 .def_6))) (let ((.def_17 (= A23 A11))) (let ((.def_18 (and .def_17 .def_16))) (let ((.def_19 (not .def_18))) (let ((.def_20 (not A19))) (let ((.def_21 (and .def_20 .def_6))) (let ((.def_22 (not A13))) (let ((.def_23 (not A24))) (let ((.def_24 (= .def_23 .def_22))) (let ((.def_25 (not .def_24))) (let ((.def_26 (and .def_25 .def_21))) (let ((.def_27 (not .def_26))) (let ((.def_28 (or .def_27 .def_19))) (let ((.def_29 (and .def_28 .def_15))) (let ((.def_30 (not .def_29))) (let ((.def_31 (not A7))) (let ((.def_32 (or .def_31 .def_1))) (let ((.def_33 (not .def_32))) (let ((.def_34 (or A9 A16))) (let ((.def_35 (and .def_34 .def_33))) (let ((.def_36 (and A19 A19))) (let ((.def_37 (not A6))) (let ((.def_38 (and .def_37 .def_23))) (let ((.def_39 (and .def_38 .def_36))) (let ((.def_40 (and .def_39 .def_35))) (let ((.def_41 (not .def_40))) (let ((.def_42 (not A16))) (let ((.def_43 (or A11 .def_42))) (let ((.def_44 (not .def_43))) (let ((.def_45 (not A18))) (let ((.def_46 (and .def_45 A10))) (let ((.def_47 (or .def_46 .def_44))) (let ((.def_48 (not .def_47))) (let ((.def_49 (and A3 A22))) (let ((.def_50 (not A5))) (let ((.def_51 (and .def_50 A18))) (let ((.def_52 (and .def_51 .def_49))) (let ((.def_53 (= .def_52 .def_48))) (let ((.def_54 (not .def_53))) (let ((.def_55 (and .def_54 .def_41))) (let ((.def_56 (or .def_55 .def_30))) (let ((.def_57 (not .def_56))) (let ((.def_58 (and A18 .def_7))) (let ((.def_59 (not .def_58))) (let ((.def_60 (and A6 A7))) (let ((.def_61 (or .def_60 .def_59))) (let ((.def_62 (not A10))) (let ((.def_63 (or A18 .def_62))) (let ((.def_64 (not A22))) (let ((.def_65 (not A8))) (let ((.def_66 (or .def_65 .def_64))) (let ((.def_67 (not .def_66))) (let ((.def_68 (or .def_67 .def_63))) (let ((.def_69 (not .def_68))) (let ((.def_70 (and .def_69 .def_61))) (let ((.def_71 (not .def_70))) (let ((.def_72 (not A14))) (let ((.def_73 (and .def_72 .def_62))) (let ((.def_74 (and A23 A5))) (let ((.def_75 (or .def_74 .def_73))) (let ((.def_76 (not .def_75))) (let ((.def_77 (not A21))) (let ((.def_78 (and .def_65 .def_77))) (let ((.def_79 (and A5 .def_50))) (let ((.def_80 (not .def_79))) (let ((.def_81 (or .def_80 .def_78))) (let ((.def_82 (not .def_81))) (let ((.def_83 (and .def_82 .def_76))) (let ((.def_84 (and .def_83 .def_71))) (let ((.def_85 (not .def_84))) (let ((.def_86 (and A23 A0))) (let ((.def_87 (not A12))) (let ((.def_88 (or .def_87 .def_64))) (let ((.def_89 (or .def_88 .def_86))) (let ((.def_90 (or .def_31 A24))) (let ((.def_91 (and A12 A20))) (let ((.def_92 (and .def_91 .def_90))) (let ((.def_93 (not .def_92))) (let ((.def_94 (or .def_93 .def_89))) (let ((.def_95 (and A1 A7))) (let ((.def_96 (and .def_64 .def_1))) (let ((.def_97 (or .def_96 .def_95))) (let ((.def_98 (and A22 A16))) (let ((.def_99 (not .def_98))) (let ((.def_100 (or .def_65 A23))) (let ((.def_101 (= .def_100 .def_99))) (let ((.def_102 (not .def_101))) (let ((.def_103 (or .def_102 .def_97))) (let ((.def_104 (or .def_103 .def_94))) (let ((.def_105 (or .def_104 .def_85))) (let ((.def_106 (and .def_105 .def_57))) (let ((.def_107 (or A24 .def_50))) (let ((.def_108 (not .def_107))) (let ((.def_109 (and .def_65 .def_45))) (let ((.def_110 (and .def_109 .def_108))) (let ((.def_111 (not .def_110))) (let ((.def_112 (= A10 .def_65))) (let ((.def_113 (not A3))) (let ((.def_114 (and .def_113 A23))) (let ((.def_115 (= .def_114 .def_112))) (let ((.def_116 (not .def_115))) (let ((.def_117 (and .def_116 .def_111))) (let ((.def_118 (or .def_1 A21))) (let ((.def_119 (not .def_118))) (let ((.def_120 (not A1))) (let ((.def_121 (and .def_10 .def_120))) (let ((.def_122 (not .def_121))) (let ((.def_123 (or .def_122 .def_119))) (let ((.def_124 (not .def_123))) (let ((.def_125 (and A11 .def_20))) (let ((.def_126 (not .def_125))) (let ((.def_127 (or .def_37 A13))) (let ((.def_128 (and .def_127 .def_126))) (let ((.def_129 (not .def_128))) (let ((.def_130 (or .def_129 .def_124))) (let ((.def_131 (not .def_130))) (let ((.def_132 (and .def_131 .def_117))) (let ((.def_133 (and .def_64 A7))) (let ((.def_134 (and A19 A13))) (let ((.def_135 (or .def_134 .def_133))) (let ((.def_136 (not .def_135))) (let ((.def_137 (or A21 A23))) (let ((.def_138 (not .def_137))) (let ((.def_139 (or .def_64 .def_20))) (let ((.def_140 (or .def_139 .def_138))) (let ((.def_141 (and .def_140 .def_136))) (let ((.def_142 (not .def_141))) (let ((.def_143 (and A7 A24))) (let ((.def_144 (or .def_23 .def_22))) (let ((.def_145 (= .def_144 .def_143))) (let ((.def_146 (or A15 A0))) (let ((.def_147 (not .def_146))) (let ((.def_148 (or .def_72 .def_22))) (let ((.def_149 (not .def_148))) (let ((.def_150 (or .def_149 .def_147))) (let ((.def_151 (not .def_150))) (let ((.def_152 (= .def_151 .def_145))) (let ((.def_153 (and .def_152 .def_142))) (let ((.def_154 (not .def_153))) (let ((.def_155 (and .def_154 .def_132))) (let ((.def_156 (not .def_155))) (let ((.def_157 (= A17 A20))) (let ((.def_158 (not .def_157))) (let ((.def_159 (and A20 .def_45))) (let ((.def_160 (not .def_159))) (let ((.def_161 (or .def_160 .def_158))) (let ((.def_162 (not A9))) (let ((.def_163 (and .def_120 .def_162))) (let ((.def_164 (not A11))) (let ((.def_165 (and .def_62 .def_164))) (let ((.def_166 (and .def_165 .def_163))) (let ((.def_167 (and .def_166 .def_161))) (let ((.def_168 (not .def_167))) (let ((.def_169 (= A6 A23))) (let ((.def_170 (not A20))) (let ((.def_171 (or .def_20 .def_170))) (let ((.def_172 (or .def_171 .def_169))) (let ((.def_173 (not .def_172))) (let ((.def_174 (and .def_113 A3))) (let ((.def_175 (not .def_174))) (let ((.def_176 (and A0 .def_164))) (let ((.def_177 (not .def_176))) (let ((.def_178 (and .def_177 .def_175))) (let ((.def_179 (or .def_178 .def_173))) (let ((.def_180 (and .def_179 .def_168))) (let ((.def_181 (or .def_42 A21))) (let ((.def_182 (not .def_181))) (let ((.def_183 (not A17))) (let ((.def_184 (or .def_20 .def_183))) (let ((.def_185 (or .def_184 .def_182))) (let ((.def_186 (or A17 A11))) (let ((.def_187 (not .def_186))) (let ((.def_188 (or .def_7 .def_37))) (let ((.def_189 (not .def_188))) (let ((.def_190 (= .def_189 .def_187))) (let ((.def_191 (not .def_190))) (let ((.def_192 (or .def_191 .def_185))) (let ((.def_193 (not .def_192))) (let ((.def_194 (and .def_120 .def_7))) (let ((.def_195 (and A1 .def_120))) (let ((.def_196 (and .def_195 .def_194))) (let ((.def_197 (not .def_196))) (let ((.def_198 (or A11 A0))) (let ((.def_199 (and A2 A19))) (let ((.def_200 (or .def_199 .def_198))) (let ((.def_201 (or .def_200 .def_197))) (let ((.def_202 (not .def_201))) (let ((.def_203 (and .def_202 .def_193))) (let ((.def_204 (not .def_203))) (let ((.def_205 (and .def_204 .def_180))) (let ((.def_206 (not .def_205))) (let ((.def_207 (= .def_206 .def_156))) (let ((.def_208 (not .def_207))) (let ((.def_209 (and .def_208 .def_106))) (let ((.def_210 (or A9 .def_72))) (let ((.def_211 (not .def_210))) (let ((.def_212 (and A7 A5))) (let ((.def_213 (and .def_212 .def_211))) (let ((.def_214 (or .def_50 .def_170))) (let ((.def_215 (not .def_214))) (let ((.def_216 (or .def_87 A12))) (let ((.def_217 (or .def_216 .def_215))) (let ((.def_218 (= .def_217 .def_213))) (let ((.def_219 (not .def_218))) (let ((.def_220 (or .def_164 .def_170))) (let ((.def_221 (not .def_220))) (let ((.def_222 (and .def_170 A15))) (let ((.def_223 (not .def_222))) (let ((.def_224 (or .def_223 .def_221))) (let ((.def_225 (not A0))) (let ((.def_226 (or .def_225 .def_120))) (let ((.def_227 (and .def_170 .def_7))) (let ((.def_228 (and .def_227 .def_226))) (let ((.def_229 (or .def_228 .def_224))) (let ((.def_230 (not .def_229))) (let ((.def_231 (or .def_230 .def_219))) (let ((.def_232 (not .def_231))) (let ((.def_233 (or .def_50 .def_23))) (let ((.def_234 (not .def_233))) (let ((.def_235 (and .def_37 .def_42))) (let ((.def_236 (not .def_235))) (let ((.def_237 (and .def_236 .def_234))) (let ((.def_238 (and .def_77 .def_37))) (let ((.def_239 (not .def_238))) (let ((.def_240 (or A14 .def_22))) (let ((.def_241 (not .def_240))) (let ((.def_242 (or .def_241 .def_239))) (let ((.def_243 (and .def_242 .def_237))) (let ((.def_244 (not .def_243))) (let ((.def_245 (= A13 A3))) (let ((.def_246 (not .def_245))) (let ((.def_247 (or .def_7 .def_42))) (let ((.def_248 (= .def_247 .def_246))) (let ((.def_249 (not .def_248))) (let ((.def_250 (and .def_7 .def_65))) (let ((.def_251 (and .def_65 A14))) (let ((.def_252 (not .def_251))) (let ((.def_253 (or .def_252 .def_250))) (let ((.def_254 (or .def_253 .def_249))) (let ((.def_255 (not .def_254))) (let ((.def_256 (or .def_255 .def_244))) (let ((.def_257 (not .def_256))) (let ((.def_258 (and .def_257 .def_232))) (let ((.def_259 (or A6 A13))) (let ((.def_260 (not .def_259))) (let ((.def_261 (and .def_162 A2))) (let ((.def_262 (not .def_261))) (let ((.def_263 (and .def_262 .def_260))) (let ((.def_264 (not .def_263))) (let ((.def_265 (or .def_170 .def_50))) (let ((.def_266 (and .def_37 .def_170))) (let ((.def_267 (and .def_266 .def_265))) (let ((.def_268 (not .def_267))) (let ((.def_269 (and .def_268 .def_264))) (let ((.def_270 (and .def_31 A21))) (let ((.def_271 (= A5 A24))) (let ((.def_272 (not .def_271))) (let ((.def_273 (and .def_272 .def_270))) (let ((.def_274 (not .def_273))) (let ((.def_275 (and A17 .def_10))) (let ((.def_276 (or A17 A16))) (let ((.def_277 (not .def_276))) (let ((.def_278 (or .def_277 .def_275))) (let ((.def_279 (not .def_278))) (let ((.def_280 (or .def_279 .def_274))) (let ((.def_281 (not .def_280))) (let ((.def_282 (or .def_281 .def_269))) (let ((.def_283 (or A6 .def_42))) (let ((.def_284 (and A14 .def_87))) (let ((.def_285 (not .def_284))) (let ((.def_286 (or .def_285 .def_283))) (let ((.def_287 (and .def_45 A4))) (let ((.def_288 (= .def_170 .def_37))) (let ((.def_289 (and .def_288 .def_287))) (let ((.def_290 (not .def_289))) (let ((.def_291 (= .def_290 .def_286))) (let ((.def_292 (or A18 A4))) (let ((.def_293 (or .def_62 .def_120))) (let ((.def_294 (not .def_293))) (let ((.def_295 (or .def_294 .def_292))) (let ((.def_296 (not .def_295))) (let ((.def_297 (and A16 A6))) (let ((.def_298 (or A6 A1))) (let ((.def_299 (= .def_298 .def_297))) (let ((.def_300 (and .def_299 .def_296))) (let ((.def_301 (and .def_300 .def_291))) (let ((.def_302 (and .def_301 .def_282))) (let ((.def_303 (or .def_302 .def_258))) (let ((.def_304 (not .def_303))) (let ((.def_305 (and A11 .def_170))) (let ((.def_306 (not .def_305))) (let ((.def_307 (and .def_72 A24))) (let ((.def_308 (not .def_307))) (let ((.def_309 (and .def_308 .def_306))) (let ((.def_310 (or A22 A0))) (let ((.def_311 (and .def_20 A23))) (let ((.def_312 (or .def_311 .def_310))) (let ((.def_313 (not .def_312))) (let ((.def_314 (and .def_313 .def_309))) (let ((.def_315 (and .def_6 .def_225))) (let ((.def_316 (and .def_315 .def_262))) (let ((.def_317 (and A12 .def_87))) (let ((.def_318 (not .def_317))) (let ((.def_319 (and .def_7 .def_113))) (let ((.def_320 (not .def_319))) (let ((.def_321 (or .def_320 .def_318))) (let ((.def_322 (not .def_321))) (let ((.def_323 (and .def_322 .def_316))) (let ((.def_324 (and .def_323 .def_314))) (let ((.def_325 (or .def_62 A10))) (let ((.def_326 (or .def_164 A22))) (let ((.def_327 (= .def_326 .def_325))) (let ((.def_328 (and A18 A21))) (let ((.def_329 (not .def_328))) (let ((.def_330 (= .def_225 .def_37))) (let ((.def_331 (or .def_330 .def_329))) (let ((.def_332 (not .def_331))) (let ((.def_333 (or .def_332 .def_327))) (let ((.def_334 (not .def_333))) (let ((.def_335 (or .def_170 A12))) (let ((.def_336 (or .def_10 A8))) (let ((.def_337 (not .def_336))) (let ((.def_338 (and .def_337 .def_335))) (let ((.def_339 (not .def_338))) (let ((.def_340 (and .def_1 A4))) (let ((.def_341 (or A21 A10))) (let ((.def_342 (= .def_341 .def_340))) (let ((.def_343 (not .def_342))) (let ((.def_344 (or .def_343 .def_339))) (let ((.def_345 (not .def_344))) (let ((.def_346 (and .def_345 .def_334))) (let ((.def_347 (not .def_346))) (let ((.def_348 (and .def_347 .def_324))) (let ((.def_349 (and A21 .def_87))) (let ((.def_350 (and .def_7 .def_31))) (let ((.def_351 (not .def_350))) (let ((.def_352 (and .def_351 .def_349))) (let ((.def_353 (not .def_352))) (let ((.def_354 (and A23 A24))) (let ((.def_355 (not .def_354))) (let ((.def_356 (or A24 .def_22))) (let ((.def_357 (= .def_356 .def_355))) (let ((.def_358 (or .def_357 .def_353))) (let ((.def_359 (not .def_358))) (let ((.def_360 (and .def_64 .def_120))) (let ((.def_361 (not .def_360))) (let ((.def_362 (or A1 A2))) (let ((.def_363 (or .def_362 .def_361))) (let ((.def_364 (or .def_225 .def_42))) (let ((.def_365 (not .def_364))) (let ((.def_366 (and A16 .def_7))) (let ((.def_367 (not .def_366))) (let ((.def_368 (and .def_367 .def_365))) (let ((.def_369 (and .def_368 .def_363))) (let ((.def_370 (and .def_369 .def_359))) (let ((.def_371 (not .def_370))) (let ((.def_372 (or .def_183 .def_7))) (let ((.def_373 (not .def_372))) (let ((.def_374 (and A2 .def_72))) (let ((.def_375 (not .def_374))) (let ((.def_376 (or .def_375 .def_373))) (let ((.def_377 (and .def_1 .def_170))) (let ((.def_378 (and .def_170 A16))) (let ((.def_379 (or .def_378 .def_377))) (let ((.def_380 (or .def_379 .def_376))) (let ((.def_381 (not .def_380))) (let ((.def_382 (and A7 A21))) (let ((.def_383 (= A20 A18))) (let ((.def_384 (and .def_383 .def_382))) (let ((.def_385 (not .def_384))) (let ((.def_386 (and .def_87 .def_120))) (let ((.def_387 (= .def_1 A22))) (let ((.def_388 (not .def_387))) (let ((.def_389 (or .def_388 .def_386))) (let ((.def_390 (or .def_389 .def_385))) (let ((.def_391 (and .def_390 .def_381))) (let ((.def_392 (or .def_391 .def_371))) (let ((.def_393 (= .def_392 .def_348))) (let ((.def_394 (not .def_393))) (let ((.def_395 (and .def_394 .def_304))) (let ((.def_396 (not .def_395))) (let ((.def_397 (= .def_396 .def_209))) (let ((.def_398 (not .def_397))) .def_398))))))))))))))))))))))))))))))))))))))))))))))))))))))))))))))))))))))))))))))))))))))))))))))))))))))))))))))))))))))))))))))))))))))))))))))))))))))))))))))))))))))))))))))))))))))))))))))))))))))))))))))))))))))))))))))))))))))))))))))))))))))))))))))))))))))))))))))))))))))))))))))))))))))))))))))))))))))))))))))))))))))))))))))))))))))))))))))))))))))))))))))))))))))))))))))))))))))))))))))))
(check-sat)
